c CNF file corresponding to a (partial) station packing problem.
p cnf 1850 229
1 2 3 4 5 6 7 8 9 10 11 12 13 14 0
-1 -2 0
-1 -3 0
-1 -4 0
-1 -5 0
-1 -6 0
-1 -7 0
-1 -8 0
-1 -9 0
-1 -10 0
-1 -11 0
-1 -12 0
-1 -13 0
-1 -14 0
-2 -3 0
-2 -4 0
-2 -5 0
-2 -6 0
-2 -7 0
-2 -8 0
-2 -9 0
-2 -10 0
-2 -11 0
-2 -12 0
-2 -13 0
-2 -14 0
-3 -4 0
-3 -5 0
-3 -6 0
-3 -7 0
-3 -8 0
-3 -9 0
-3 -10 0
-3 -11 0
-3 -12 0
-3 -13 0
-3 -14 0
-4 -5 0
-4 -6 0
-4 -7 0
-4 -8 0
-4 -9 0
-4 -10 0
-4 -11 0
-4 -12 0
-4 -13 0
-4 -14 0
-5 -6 0
-5 -7 0
-5 -8 0
-5 -9 0
-5 -10 0
-5 -11 0
-5 -12 0
-5 -13 0
-5 -14 0
-6 -7 0
-6 -8 0
-6 -9 0
-6 -10 0
-6 -11 0
-6 -12 0
-6 -13 0
-6 -14 0
-7 -8 0
-7 -9 0
-7 -10 0
-7 -11 0
-7 -12 0
-7 -13 0
-7 -14 0
-8 -9 0
-8 -10 0
-8 -11 0
-8 -12 0
-8 -13 0
-8 -14 0
-9 -10 0
-9 -11 0
-9 -12 0
-9 -13 0
-9 -14 0
-10 -11 0
-10 -12 0
-10 -13 0
-10 -14 0
-11 -12 0
-11 -13 0
-11 -14 0
-12 -13 0
-12 -14 0
-13 -14 0
1834 1835 1836 1837 1838 1839 1840 1841 1842 1843 1844 1845 1846 1847 1848 1849 1850 0
-1834 -1835 0
-1834 -1836 0
-1834 -1837 0
-1834 -1838 0
-1834 -1839 0
-1834 -1840 0
-1834 -1841 0
-1834 -1842 0
-1834 -1843 0
-1834 -1844 0
-1834 -1845 0
-1834 -1846 0
-1834 -1847 0
-1834 -1848 0
-1834 -1849 0
-1834 -1850 0
-1835 -1836 0
-1835 -1837 0
-1835 -1838 0
-1835 -1839 0
-1835 -1840 0
-1835 -1841 0
-1835 -1842 0
-1835 -1843 0
-1835 -1844 0
-1835 -1845 0
-1835 -1846 0
-1835 -1847 0
-1835 -1848 0
-1835 -1849 0
-1835 -1850 0
-1836 -1837 0
-1836 -1838 0
-1836 -1839 0
-1836 -1840 0
-1836 -1841 0
-1836 -1842 0
-1836 -1843 0
-1836 -1844 0
-1836 -1845 0
-1836 -1846 0
-1836 -1847 0
-1836 -1848 0
-1836 -1849 0
-1836 -1850 0
-1837 -1838 0
-1837 -1839 0
-1837 -1840 0
-1837 -1841 0
-1837 -1842 0
-1837 -1843 0
-1837 -1844 0
-1837 -1845 0
-1837 -1846 0
-1837 -1847 0
-1837 -1848 0
-1837 -1849 0
-1837 -1850 0
-1838 -1839 0
-1838 -1840 0
-1838 -1841 0
-1838 -1842 0
-1838 -1843 0
-1838 -1844 0
-1838 -1845 0
-1838 -1846 0
-1838 -1847 0
-1838 -1848 0
-1838 -1849 0
-1838 -1850 0
-1839 -1840 0
-1839 -1841 0
-1839 -1842 0
-1839 -1843 0
-1839 -1844 0
-1839 -1845 0
-1839 -1846 0
-1839 -1847 0
-1839 -1848 0
-1839 -1849 0
-1839 -1850 0
-1840 -1841 0
-1840 -1842 0
-1840 -1843 0
-1840 -1844 0
-1840 -1845 0
-1840 -1846 0
-1840 -1847 0
-1840 -1848 0
-1840 -1849 0
-1840 -1850 0
-1841 -1842 0
-1841 -1843 0
-1841 -1844 0
-1841 -1845 0
-1841 -1846 0
-1841 -1847 0
-1841 -1848 0
-1841 -1849 0
-1841 -1850 0
-1842 -1843 0
-1842 -1844 0
-1842 -1845 0
-1842 -1846 0
-1842 -1847 0
-1842 -1848 0
-1842 -1849 0
-1842 -1850 0
-1843 -1844 0
-1843 -1845 0
-1843 -1846 0
-1843 -1847 0
-1843 -1848 0
-1843 -1849 0
-1843 -1850 0
-1844 -1845 0
-1844 -1846 0
-1844 -1847 0
-1844 -1848 0
-1844 -1849 0
-1844 -1850 0
-1845 -1846 0
-1845 -1847 0
-1845 -1848 0
-1845 -1849 0
-1845 -1850 0
-1846 -1847 0
-1846 -1848 0
-1846 -1849 0
-1846 -1850 0
-1847 -1848 0
-1847 -1849 0
-1847 -1850 0
-1848 -1849 0
-1848 -1850 0
-1849 -1850 0
